========== Env & Dir ==========
Host: node1613
Start: Wed Jan 14 23:05:22 EST 2026
Submit dir: /orcd/home/002/jositu/ad_opt
PWD: /orcd/home/002/jositu/ad_opt
===============================
Load modules...
Activate environment...
Running optimization.py
  [Cache] Loading from feature_matrix.parquet
Set parameter WLSAccessID
Set parameter WLSSecret
Set parameter LicenseID to value 2760147
Academic license 2760147 - for non-commercial use only - registered to jo___@mit.edu
Set parameter OutputFlag to value 1
Set parameter TimeLimit to value 300
[Info] Pruned 1037 rows with negative predicted clicks at Cost=0.
Gurobi Optimizer version 13.0.0 build v13.0.0rc1 (linux64 - "Rocky Linux 8.10 (Green Obsidian)")

CPU model: AMD EPYC 9474F 48-Core Processor, instruction set [SSE2|AVX|AVX2|AVX512]
Thread count: 96 physical cores, 192 logical processors, using up to 32 threads

Non-default parameters:
TimeLimit  300

Academic license 2760147 - for non-commercial use only - registered to jo___@mit.edu
Optimize a model with 1657370 rows, 874894 columns and 4686019 nonzeros (Max)
Model fingerprint: 0x33d23fba
Model has 15145 linear objective coefficients
Variable types: 30290 continuous, 844604 integer (844604 binary)
Coefficient statistics:
  Matrix range     [3e-03, 4e+02]
  Objective range  [1e+00, 1e+00]
  Bounds range     [1e+00, 1e+00]
  RHS range        [1e+01, 4e+02]
Found heuristic solution: objective -0.0000000
Presolve removed 305339 rows and 35253 columns (presolve time = 5s)...
Presolve removed 311276 rows and 38743 columns (presolve time = 10s)...
Presolve removed 810937 rows and 38980 columns (presolve time = 15s)...
Presolve removed 810937 rows and 39006 columns (presolve time = 22s)...
Presolve removed 810937 rows and 39006 columns (presolve time = 27s)...
Presolve removed 810937 rows and 39006 columns (presolve time = 32s)...
Presolve removed 810937 rows and 43300 columns (presolve time = 35s)...
Presolve removed 817587 rows and 43325 columns (presolve time = 40s)...
Presolve removed 817591 rows and 43325 columns
Presolve time: 41.64s
Presolved: 839779 rows, 831569 columns, 2714615 nonzeros
Variable types: 15031 continuous, 816538 integer (816537 binary)
Found heuristic solution: objective 46.3769167
Deterministic concurrent LP optimizer: primal simplex, dual simplex, and barrier
Showing barrier log only...

Root barrier log...

Ordering time: 0.77s

Barrier statistics:
 AA' NZ     : 1.155e+07
 Factor NZ  : 1.813e+07 (roughly 700 MB of memory)
 Factor Ops : 5.862e+08 (less than 1 second per iteration)
 Threads    : 30

                  Objective                Residual
Iter       Primal          Dual         Primal    Dual     Compl     Time
   0   3.04627237e+07  1.68421653e+08  1.38e+06 5.50e+00  4.83e+03    54s
   1   1.56041838e+07  1.79803085e+08  7.46e+05 1.71e-13  2.74e+03    54s
   2   8.04663169e+05  1.52370689e+08  3.23e+04 2.88e-13  1.89e+02    55s
   3   1.70926682e+05  3.30563199e+07  5.45e+03 3.98e-13  3.01e+01    56s
   4   7.57963233e+04  6.27250187e+06  1.98e+03 5.12e-13  7.18e+00    56s
   5   3.42919461e+04  3.37815758e+06  6.47e+02 4.83e-13  3.01e+00    57s
   6   1.74934771e+04  1.07308844e+06  2.06e+02 5.12e-13  9.42e-01    57s
   7   1.15947337e+04  3.39461628e+05  6.80e+01 5.12e-13  2.95e-01    57s
   8   9.13548165e+03  7.46770656e+04  8.07e+00 4.69e-13  4.78e-02    58s
   9   1.31988457e+04  4.86878025e+04  7.75e-01 3.55e-13  2.02e-02    58s
  10   1.49430849e+04  2.64304638e+04  1.01e-01 1.71e-13  6.32e-03    58s
  11   1.62974893e+04  2.05360489e+04  1.69e-02 8.53e-14  2.32e-03    59s
  12   1.63939394e+04  2.00792074e+04  1.44e-02 9.95e-14  2.01e-03    59s
  13   1.64068474e+04  1.99224346e+04  1.41e-02 8.88e-14  1.92e-03    60s
  14   1.64294693e+04  1.98287423e+04  1.36e-02 7.51e-14  1.86e-03    60s
  15   1.64554382e+04  1.96666631e+04  1.31e-02 9.41e-14  1.75e-03    60s
  16   1.64913993e+04  1.96303810e+04  1.25e-02 6.93e-14  1.72e-03    61s
  17   1.65349715e+04  1.94311488e+04  1.18e-02 9.06e-14  1.58e-03    61s
  18   1.65648494e+04  1.92352952e+04  1.13e-02 7.28e-14  1.46e-03    62s
  19   1.66260652e+04  1.90887647e+04  1.04e-02 7.64e-14  1.35e-03    63s
  20   1.66904226e+04  1.89279815e+04  9.64e-03 5.15e-14  1.22e-03    64s
  21   1.67465037e+04  1.87947627e+04  8.94e-03 4.88e-14  1.12e-03    64s
  22   1.67742219e+04  1.87622930e+04  8.63e-03 4.97e-14  1.09e-03    66s
  23   1.68351781e+04  1.86327124e+04  7.95e-03 3.82e-14  9.82e-04    67s
  24   1.68931717e+04  1.85428749e+04  7.34e-03 4.88e-14  9.01e-04    68s
  25   1.69071704e+04  1.84759429e+04  7.18e-03 4.44e-14  8.57e-04    69s
  26   1.69911604e+04  1.84088840e+04  6.23e-03 3.60e-14  7.75e-04    69s
  27   1.70298755e+04  1.83255257e+04  5.81e-03 3.20e-14  7.08e-04    70s
  28   1.70728162e+04  1.82473451e+04  5.37e-03 2.71e-14  6.42e-04    71s
  29   1.71152598e+04  1.82099647e+04  4.97e-03 2.80e-14  5.98e-04    72s
  30   1.71568500e+04  1.81703152e+04  4.57e-03 2.78e-14  5.54e-04    72s
  31   1.71652260e+04  1.81330397e+04  4.48e-03 2.31e-14  5.29e-04    74s
  32   1.72462945e+04  1.80930939e+04  3.70e-03 2.40e-14  4.63e-04    74s
  33   1.72622549e+04  1.80623300e+04  3.55e-03 2.07e-14  4.37e-04    75s
  34   1.73377534e+04  1.80076720e+04  2.85e-03 2.44e-14  3.66e-04    76s
  35   1.73565819e+04  1.79418802e+04  2.69e-03 2.31e-14  3.20e-04    76s
  36   1.73786845e+04  1.79125873e+04  2.50e-03 2.00e-14  2.92e-04    77s
  37   1.73904481e+04  1.78985284e+04  2.40e-03 2.24e-14  2.78e-04    78s
  38   1.74195123e+04  1.78839143e+04  2.15e-03 1.73e-14  2.54e-04    79s
  39   1.74394870e+04  1.78699815e+04  1.99e-03 2.40e-14  2.35e-04    79s
  40   1.74705389e+04  1.78531197e+04  1.72e-03 2.66e-14  2.09e-04    80s
  41   1.74937637e+04  1.78315670e+04  1.53e-03 2.75e-14  1.85e-04    81s
  42   1.75003870e+04  1.77907000e+04  1.47e-03 2.85e-14  1.59e-04    81s
  43   1.75185102e+04  1.77669706e+04  1.31e-03 2.80e-14  1.36e-04    82s
  44   1.75259475e+04  1.77589479e+04  1.25e-03 1.98e-14  1.27e-04    83s
  45   1.75396498e+04  1.77515985e+04  1.13e-03 2.73e-14  1.16e-04    84s
  46   1.75507100e+04  1.77398676e+04  1.04e-03 3.02e-14  1.03e-04    84s
  47   1.75621744e+04  1.77266812e+04  9.41e-04 3.02e-14  8.99e-05    85s
  48   1.75755232e+04  1.77165784e+04  8.27e-04 3.11e-14  7.71e-05    86s
  49   1.75869652e+04  1.77095753e+04  7.31e-04 2.40e-14  6.70e-05    86s
  50   1.75945634e+04  1.77062989e+04  6.66e-04 2.21e-14  6.11e-05    87s
  51   1.76047093e+04  1.76959861e+04  5.82e-04 2.49e-14  4.99e-05    88s

Barrier performed 51 iterations in 87.52 seconds (62.71 work units)
Barrier solve interrupted - model solved by another algorithm

Concurrent spin time: 7.41s (can be avoided by choosing Method=3)

Solved with primal simplex

Root simplex log...

Iteration    Objective       Primal Inf.    Dual Inf.      Time
  607331    1.7669994e+04   0.000000e+00   0.000000e+00     95s

Use crossover to convert LP symmetric solution to basic solution...

Root crossover log...

  114579 DPushes remaining with DInf 0.0000000e+00                96s
       0 DPushes remaining with DInf 0.0000000e+00                97s

     454 PPushes remaining with PInf 0.0000000e+00                97s
       0 PPushes remaining with PInf 0.0000000e+00                97s

  Push phase complete: Pinf 0.0000000e+00, Dinf 8.7392239e-03     97s


Root simplex log...

Iteration    Objective       Primal Inf.    Dual Inf.      Time
  722342    1.7669994e+04   0.000000e+00   8.739224e-03     97s
  722343    1.7669994e+04   0.000000e+00   0.000000e+00     97s
Crossover time: 1.79 seconds (1.99 work units)
  722343    1.7669994e+04   0.000000e+00   0.000000e+00     97s

Root relaxation: objective 1.766999e+04, 722343 iterations, 49.50 seconds (24.48 work units)

    Nodes    |    Current Node    |     Objective Bounds      |     Work
 Expl Unexpl |  Obj  Depth IntInf | Incumbent    BestBd   Gap | It/Node Time

     0     0 17669.9944    0 18540   46.37692 17669.9944      -     -   99s
H    0     0                    16690.554451 17669.9944  5.87%     -  100s
H    0     0                    16755.200677 17669.9944  5.46%     -  101s
H    0     0                    16769.209493 17669.9944  5.37%     -  104s
H    0     0                    16773.730029 17669.9944  5.34%     -  104s
H    0     0                    16775.115226 17669.9944  5.33%     -  106s
H    0     0                    16782.682342 17669.9944  5.29%     -  108s
H    0     0                    16785.310451 17669.9944  5.27%     -  112s
H    0     0                    16787.385126 17669.9944  5.26%     -  120s
H    0     0                    16787.423127 17669.9944  5.26%     -  128s
H    0     0                    16787.486390 17669.9944  5.26%     -  131s
H    0     0                    16787.593994 17669.9944  5.26%     -  143s
     0     0 17462.8412    0 15899 16787.5940 17462.8412  4.02%     -  152s
H    0     0                    16799.576645 17462.8308  3.95%     -  160s
H    0     0                    16803.484224 17462.8308  3.92%     -  161s
H    0     0                    16803.779006 17462.8308  3.92%     -  162s
H    0     0                    16805.055974 17462.8308  3.91%     -  162s
H    0     0                    16805.093471 17462.8308  3.91%     -  164s
     0     0 17388.7760    0 17128 16805.0935 17388.7760  3.47%     -  172s
     0     0 17379.7137    0 17030 16805.0935 17379.7137  3.42%     -  174s
     0     0 17377.9224    0 17711 16805.0935 17377.9224  3.41%     -  176s
     0     0 17377.6829    0 17709 16805.0935 17377.6829  3.41%     -  177s
     0     0 17377.6003    0 17767 16805.0935 17377.6003  3.41%     -  178s
     0     0 17377.5794    0 17763 16805.0935 17377.5794  3.41%     -  179s
     0     0 17267.8315    0 17062 16805.0935 17267.8315  2.75%     -  191s
     0     0 17254.0683    0 17887 16805.0935 17254.0683  2.67%     -  196s
     0     0 17254.0683    0 17885 16805.0935 17254.0683  2.67%     -  197s
     0     0 17252.1818    0 18196 16805.0935 17252.1818  2.66%     -  199s
     0     0 17252.1795    0 18196 16805.0935 17252.1795  2.66%     -  199s
     0     0 17251.8529    0 18292 16805.0935 17251.8529  2.66%     -  200s
     0     0 17251.8236    0 18328 16805.0935 17251.8236  2.66%     -  202s
     0     0 17204.0480    0 17138 16805.0935 17204.0480  2.37%     -  219s
     0     0 17204.0457    0 17138 16805.0935 17204.0457  2.37%     -  219s
H    0     0                    16805.108439 17204.0291  2.37%     -  224s
H    0     0                    16805.831071 17204.0291  2.37%     -  232s
H    0     0                    16805.974712 17204.0291  2.37%     -  239s
H    0     0                    16806.608685 17204.0291  2.36%     -  240s
H    0     0                    16806.642001 17204.0291  2.36%     -  250s
H    0     0                    16806.736422 17204.0291  2.36%     -  250s
     0     0 17193.5187    0 18266 16806.7364 17193.5187  2.30%     -  260s
     0     0 17193.5140    0 18266 16806.7364 17193.5140  2.30%     -  260s
     0     0 17191.6991    0 18824 16806.7364 17191.6991  2.29%     -  265s
     0     0 17191.4929    0 18965 16806.7364 17191.4929  2.29%     -  267s
     0     0 17191.4286    0 19183 16806.7364 17191.4286  2.29%     -  269s
     0     0 17191.4238    0 19183 16806.7364 17191.4238  2.29%     -  270s
     0     0          -    0      16806.7364 17191.4238  2.29%     -  300s

Cutting planes:
  Learned: 26718
  Gomory: 76
  Cover: 19314
  Clique: 191
  MIR: 19151
  StrongCG: 2
  GUB cover: 2496
  Zero half: 1
  RLT: 87
  Relax-and-lift: 6400

Explored 1 nodes (785014 simplex iterations) in 300.19 seconds (292.35 work units)
Thread count was 32 (of 192 available processors)

Solution count 10: 16806.7 16806.6 16806.6 ... 16803.5

Time limit reached
Best objective 1.680673642160e+04, best bound 1.719142381478e+04, gap 2.2889%
[Info] Optimization Success. Objective Value: 16806.7364
[Info] Max discrepancy between Gurobi and XGBoost: 4.386089
[Info] Sample of Optimization Results:
                Keyword Region  ... Actual Model Pred          Diff
0  1 mit opencourseware    USA  ...          1.669540 -6.450884e-07
1  1 mit opencourseware    USA  ...          1.618963 -4.987886e-07
2  1 mit opencourseware      A  ...          1.967262 -5.589764e-07
3  1 mit opencourseware      A  ...          1.916686 -6.510951e-07
4  1 mit opencourseware      A  ...          0.426669 -3.098161e-07

[5 rows x 7 columns]
[Info] Optimization results saved to 'opt_results/bids/optimized_costs.csv'.
End: Wed Jan 14 23:11:07 EST 2026
